%% Produces 1 plate.
%% 2021/09/13: UNSAT. Too many the controls would end up too close to each other.

%% Plate dimentions: (this is a 384-well plate)
num_rows = 4; %% height
num_cols = 6; %% width


horizontal_cell_lines = 1;
vertical_cell_lines = 1;

allow_empty_wells = true;

% New and used!
concentrations_on_different_rows = false;
concentrations_on_different_columns = false;

% New and unused! (Restriction: replicates_on_different_plates /\ replicates_on_same_plate == false)
replicates_on_different_plates = false;
replicates_on_same_plate = false;

size_empty_edge = 1;


%%% Compounds %%%
compounds = 5; %% number of drugs/compounds
compound_concentrations = [1| i in 1..compounds]; 

compound_names = ["comp\(i)" | i in 1..compounds];

compound_replicates	 = [1| i in 1..compounds]; 

compound_concentration_names = array2d(1..compounds, 1..1,[ "U" | i in 1..compounds]);

compound_concentration_indicators = [""]; 


%%% Combinations %%%
combinations = 	0;
combination_names = [];
combination_concentration_names = [];
combination_concentrations = 0;


%%% Controls %%%
num_controls = 1;
control_names = ["[cont\(i)]" | i in 1..num_controls];

control_concentrations = [1];

control_concentration_names =  [|"U"|];

control_replicates = [3];
